Data path: /scratch/opt/lxu/CFLG/benchmarks/tree_A
Instance: treeA.500.50
Result path: /scratch/opt/lxu/CFLG/results/tree_A
Solver: Gurobi
Time limit: 7200
Formulation: LEFPAV
Cover: Large
julia --project=. src/main.jl /scratch/opt/lxu/CFLG/benchmarks/tree_A treeA.500.50 /scratch/opt/lxu/CFLG/results/tree_A Gurobi 7200 LEFPAV Large
The latest version of Julia in the `release` channel is 1.11.5+0.x64.linux.gnu. You currently have `1.11.4+0.x64.linux.gnu` installed. Run:

  juliaup update

in your terminal shell to install Julia 1.11.5+0.x64.linux.gnu and update the `release` channel to that version.
/scratch/opt/lxu/CFLG/benchmarks/tree_A Gurobi 7200.0 /scratch/opt/lxu/CFLG/results/tree_A treeA.500.50 LEFPAV Large
/scratch/opt/lxu/CFLG/benchmarks/tree_A/treeA.500.50

 read graph
data loaded

problem_graph/original graph: node: 500/500 edge: 549/549 dlt: 2.9895555760766013 break_avg_len: 1.4947777880383006 break_max_len: 1.9980070812005684Vbar/V, Ebar/E(236, 500, 285, 549)
Set parameter TokenServer to value "solice01.zib.de"
Set parameter Threads to value 1
Set parameter OutputFlag to value 1
Gurobi Optimizer version 12.0.1 build v12.0.1rc0 (linux64 - "Debian GNU/Linux 12 (bookworm)")

CPU model: Intel(R) Xeon(R) Gold 5122 CPU @ 3.60GHz, instruction set [SSE2|AVX|AVX2|AVX512]
Thread count: 8 physical cores, 16 logical processors, using up to 1 threads

Non-default parameters:
Threads  1

Optimize a model with 707 rows, 1134 columns and 1890 nonzeros
Model fingerprint: 0x94116d53
Coefficient statistics:
  Matrix range     [1e+00, 1e+00]
  Objective range  [1e+00, 1e+00]
  Bounds range     [1e+00, 1e+00]
  RHS range        [1e+00, 1e+00]
Presolve removed 707 rows and 1134 columns
Presolve time: 0.00s
Presolve: All rows and columns removed
Iteration    Objective       Primal Inf.    Dual Inf.      Time
       0    9.3000000e+01   0.000000e+00   0.000000e+00      0s

Solved in 0 iterations and 0.00 seconds (0.00 work units)
Optimal objective  9.300000000e+01

User-callback calls 35, time in user-callback 0.01 sec
elapsed CPU time: 1.539057 seconds
Set parameter TokenServer to value "solice01.zib.de"
Set parameter Threads to value 1
Set parameter OutputFlag to value 1
Set parameter MIPGap to value 0.0001
Set parameter MIPGapAbs to value 0.999998
Set parameter TimeLimit to value 7198.460943

 more cuts: false 2.9895555760766013 false
is_attach:trueformulation:LEFPAV0 378 0
Set parameter PreCrush to value 1

 model loaded

Gurobi Optimizer version 12.0.1 build v12.0.1rc0 (linux64 - "Debian GNU/Linux 12 (bookworm)")

CPU model: Intel(R) Xeon(R) Gold 5122 CPU @ 3.60GHz, instruction set [SSE2|AVX|AVX2|AVX512]
Thread count: 8 physical cores, 16 logical processors, using up to 1 threads

Non-default parameters:
TimeLimit  7198.460943
MIPGapAbs  0.999998
PreCrush  1
Threads  1

Optimize a model with 11433 rows, 6650 columns and 31713 nonzeros
Model fingerprint: 0x354f8239
Variable types: 1085 continuous, 5565 integer (5565 binary)
Coefficient statistics:
  Matrix range     [1e-06, 6e+00]
  Objective range  [1e+00, 1e+00]
  Bounds range     [5e-03, 3e+00]
  RHS range        [1e-06, 6e+00]
Presolve removed 6304 rows and 3334 columns
Presolve time: 0.19s
Presolved: 5129 rows, 3316 columns, 21766 nonzeros
Variable types: 515 continuous, 2801 integer (2801 binary)
Found heuristic solution: objective 363.0000000
Found heuristic solution: objective 360.0000000
Found heuristic solution: objective 244.0000000

Root relaxation: objective 1.129469e+02, 3141 iterations, 0.05 seconds (0.05 work units)

    Nodes    |    Current Node    |     Objective Bounds      |     Work
 Expl Unexpl |  Obj  Depth IntInf | Incumbent    BestBd   Gap | It/Node Time

     0     0  112.94686    0  678  244.00000  112.94686  53.7%     -    0s
H    0     0                     235.0000000  112.94686  51.9%     -    0s
H    0     0                     190.0000000  112.94686  40.6%     -    0s
H    0     0                     187.0000000  112.94686  39.6%     -    0s
H    0     0                     186.0000000  112.94686  39.3%     -    0s
elapsed CPU time: 9.238782757470574e12 seconds
     0     0  119.56896    0  852  186.00000  119.56896  35.7%     -    1s
H    0     0                     169.0000000  119.56900  29.2%     -    1s
H    0     0                     168.0000000  119.56900  28.8%     -    1s
elapsed CPU time: 4.607182418800041e12 seconds
     0     0  119.59480    0  841  168.00000  119.59480  28.8%     -    1s
elapsed CPU time: 9.212050790825352e12 seconds
     0     0  119.68270    0  832  168.00000  119.68270  28.8%     -    1s
elapsed CPU time: 4.140447257647595e9 seconds
     0     0  119.70146    0  829  168.00000  119.70146  28.7%     -    1s
elapsed CPU time: 9.22865360538333e12 seconds
     0     0  119.70963    0  842  168.00000  119.70963  28.7%     -    1s
elapsed CPU time: 0.023035 seconds
     0     0  119.70986    0  839  168.00000  119.70986  28.7%     -    1s
elapsed CPU time: 0.022887 seconds
     0     0  125.81819    0  763  168.00000  125.81819  25.1%     -    1s
elapsed CPU time: 1.8441139377611496e13 seconds
     0     0  125.90587    0  785  168.00000  125.90587  25.1%     -    1s
elapsed CPU time: 1.101096470731745e9 seconds
     0     0  125.91162    0  778  168.00000  125.91162  25.1%     -    1s
elapsed CPU time: 9.212736357800107e12 seconds
     0     0  125.91581    0  764  168.00000  125.91581  25.1%     -    1s
elapsed CPU time: 0.02296 seconds
     0     0  125.92208    0  749  168.00000  125.92208  25.0%     -    1s
elapsed CPU time: 0.042642 seconds
     0     0  125.92305    0  761  168.00000  125.92305  25.0%     -    1s
elapsed CPU time: 0.022899 seconds
     0     0  129.21575    0  741  168.00000  129.21575  23.1%     -    2s
H    0     0                     167.0000000  129.21575  22.6%     -    2s
H    0     0                     166.0000000  129.21575  22.2%     -    2s
elapsed CPU time: 1.3825262050923797e13 seconds
     0     0  129.41271    0  744  166.00000  129.41271  22.0%     -    2s
elapsed CPU time: 1.535592542264073e9 seconds
     0     0  129.42194    0  727  166.00000  129.42194  22.0%     -    2s
elapsed CPU time: 0.023003 seconds
     0     0  129.42194    0  752  166.00000  129.42194  22.0%     -    2s
elapsed CPU time: 0.022919 seconds
     0     0  130.86168    0  666  166.00000  130.86168  21.2%     -    2s
H    0     0                     163.0000000  130.88209  19.7%     -    2s
H    0     0                     161.0000000  130.88209  18.7%     -    2s
H    0     0                     160.0000000  130.88209  18.2%     -    2s
H    0     0                     159.0000000  130.88209  17.7%     -    2s
elapsed CPU time: 0.035313 seconds
     0     0  130.88549    0  666  159.00000  130.88549  17.7%     -    2s
elapsed CPU time: 6.709211362777594e9 seconds
     0     0  130.89401    0  704  159.00000  130.89401  17.7%     -    2s
elapsed CPU time: 9.21413950643584e12 seconds
     0     0  130.89401    0  698  159.00000  130.89401  17.7%     -    2s
elapsed CPU time: 0.022691 seconds
     0     0  131.09954    0  609  159.00000  131.09954  17.5%     -    2s
H    0     0                     157.0000000  131.10787  16.5%     -    2s
elapsed CPU time: 9.223372036854799e12 seconds
     0     0  131.10787    0  560  157.00000  131.10787  16.5%     -    2s
elapsed CPU time: 9.226960726843742e12 seconds
     0     0  131.10787    0  568  157.00000  131.10787  16.5%     -    2s
H    0     0                     149.0000000  131.10787  12.0%     -    2s
H    0     0                     146.0000000  131.10787  10.2%     -    2s
elapsed CPU time: 0.033606 seconds
     0     0  131.10787    0  583  146.00000  131.10787  10.2%     -    2s
elapsed CPU time: 0.022856 seconds
     0     0  131.12917    0  353  146.00000  131.12917  10.2%     -    2s
elapsed CPU time: 2.3154851592559406e10 seconds
     0     0  131.32917    0  438  146.00000  131.32917  10.0%     -    3s
elapsed CPU time: 0.023084 seconds
     0     0  131.32917    0  474  146.00000  131.32917  10.0%     -    3s
elapsed CPU time: 1.382171142293503e13 seconds
     0     0  131.32917    0  335  146.00000  131.32917  10.0%     -    3s
elapsed CPU time: 1.557491291996164e10 seconds
H    0     0                     145.0000000  131.32917  9.43%     -    3s
H    0     0                     144.0000000  131.32917  8.80%     -    3s
H    0     0                     143.0000000  131.32917  8.16%     -    3s
H    0     0                     142.0000000  131.32917  7.51%     -    3s
elapsed CPU time: 9.210676946751479e12 seconds
     0     2  131.32917    0  359  142.00000  131.32917  7.51%     -    3s
H  378   326                     141.0000000  131.56944  6.69%  32.4    4s
   399   346  136.99634   85  192  141.00000  131.56944  6.69%  31.4    5s
H  579   450                     140.0000000  134.60713  3.85%  27.8    8s
   598   463  136.00195   18  244  140.00000  136.00195  2.86%  26.9   10s
   638   490  139.16667   82  270  140.00000  136.55556  2.46%  25.2   15s
   759   559  138.00000   29   82  140.00000  137.33333  1.90%   220   20s
  1437   756  138.29018   38  152  140.00000  137.40912  1.85%   133   25s
H 1975   268                     139.0000000  137.50000  1.08%   108   28s
  2304   291  138.00000   39  184  139.00000  137.50000  1.08%  97.2   30s
  3446   662  138.00000   60  171  139.00000  137.88945  0.80%  81.6   35s
  4673   773  138.00000   55   28  139.00000  138.00000  0.72%  73.5   40s
  5832   732  138.00000   56   87  139.00000  138.00000  0.72%  69.6   45s
  6890   739  138.00000   51   80  139.00000  138.00000  0.72%  65.8   50s
  7897   727  138.00000   58   79  139.00000  138.00000  0.72%  64.6   55s
  9263   672  138.00000   59   83  139.00000  138.00000  0.72%  62.1   60s
 10500   658  138.00000   56   74  139.00000  138.00000  0.72%  60.0   65s
 11702   617  138.00000   53  279  139.00000  138.00000  0.72%  60.1   70s
 11817   635     cutoff   56       139.00000  138.00000  0.72%  60.2   83s
 12290   652     cutoff   57       139.00000  138.00000  0.72%  59.9   85s
 13514   652     cutoff   52       139.00000  138.00000  0.72%  59.5   90s
 14630   637  138.00000   42   86  139.00000  138.00000  0.72%  59.2   95s
 15734   618     cutoff   61       139.00000  138.00000  0.72%  59.0  100s
 16701   627  138.00000   55   80  139.00000  138.00000  0.72%  59.6  105s
 17811   605     cutoff   68       139.00000  138.00000  0.72%  59.5  110s
 19003   560  138.00000   65  125  139.00000  138.00000  0.72%  59.5  115s
 20198   528  138.00000   47  137  139.00000  138.00000  0.72%  59.6  120s
 21357   515  138.00000   58  115  139.00000  138.00000  0.72%  59.7  125s
 22400   500     cutoff   56       139.00000  138.00000  0.72%  59.8  130s
 23798   497     cutoff   48       139.00000  138.00000  0.72%  59.0  135s
 25023   503  138.00000   43   98  139.00000  138.00000  0.72%  58.6  140s
 26417   516     cutoff   65       139.00000  138.00000  0.72%  58.1  145s
 27604   523  138.00000   48  127  139.00000  138.00000  0.72%  58.0  150s
 28962   512     cutoff   50       139.00000  138.00000  0.72%  57.5  155s
 30279   502  138.00000   36  138  139.00000  138.00000  0.72%  57.3  160s
 31404   512  138.00000   47  124  139.00000  138.00000  0.72%  57.2  165s
 32580   518  138.00000   40  105  139.00000  138.00000  0.72%  57.0  170s
 33902   520  138.00000   49  105  139.00000  138.00000  0.72%  56.6  175s
 35100   509  138.00000   47  122  139.00000  138.00000  0.72%  56.5  180s
 36293   506     cutoff   45       139.00000  138.00000  0.72%  56.5  185s
 37545   514  138.00000   43  111  139.00000  138.00000  0.72%  56.5  190s
 38729   514  138.00000   45   85  139.00000  138.00000  0.72%  56.4  195s
 39939   501  138.00000   42  149  139.00000  138.00000  0.72%  56.2  200s
 41110   502  138.00000   37  148  139.00000  138.00000  0.72%  56.2  205s
 42286   514  138.00000   46  141  139.00000  138.00000  0.72%  55.8  210s
 43618   496     cutoff   47       139.00000  138.00000  0.72%  55.4  215s
 44823   501     cutoff   52       139.00000  138.00000  0.72%  55.3  220s
 45987   495     cutoff   64       139.00000  138.00000  0.72%  55.3  225s
 47232   492     cutoff   60       139.00000  138.00000  0.72%  55.2  230s
 48478   497  138.00000   49  139  139.00000  138.00000  0.72%  55.3  235s
 49612   511     cutoff   48       139.00000  138.00000  0.72%  55.1  240s
 50765   516  138.00000   50  126  139.00000  138.00000  0.72%  55.1  245s
 51754   507  138.00000   39  132  139.00000  138.00000  0.72%  55.3  250s
 52983   485     cutoff   70       139.00000  138.00000  0.72%  55.3  255s
 54312   489  138.00000   50   61  139.00000  138.00000  0.72%  55.0  260s
 55601   489  138.00000   57  122  139.00000  138.00000  0.72%  54.9  265s
 56973   484     cutoff   54       139.00000  138.00000  0.72%  54.6  270s
 58298   496  138.00000   49  121  139.00000  138.00000  0.72%  54.4  275s
 59489   489  138.00000   52   80  139.00000  138.00000  0.72%  54.5  280s
 60810   489  138.00000   54   47  139.00000  138.00000  0.72%  54.2  285s
 62228   485  138.00000   47   92  139.00000  138.00000  0.72%  53.8  290s
 63392   481  138.00000   47  136  139.00000  138.00000  0.72%  53.9  295s
 64548   499  138.00000   44   88  139.00000  138.00000  0.72%  53.9  300s
 65716   495     cutoff   50       139.00000  138.00000  0.72%  53.9  305s
 67066   498     cutoff   49       139.00000  138.00000  0.72%  53.8  310s
 68462   495     cutoff   49       139.00000  138.00000  0.72%  53.6  315s
 69611   506  138.00000   50   78  139.00000  138.00000  0.72%  53.7  320s
 70701   511  138.00000   48  132  139.00000  138.00000  0.72%  53.7  325s
 71823   506  138.00000   55   84  139.00000  138.00000  0.72%  53.7  330s
 72995   495  138.00000   51  123  139.00000  138.00000  0.72%  53.8  335s
 74301   493  138.00000   45   80  139.00000  138.00000  0.72%  53.8  340s
 75627   494  138.00000   51   99  139.00000  138.00000  0.72%  53.7  345s
 76846   493  138.00000   51   55  139.00000  138.00000  0.72%  53.7  350s
 77924   498 infeasible   48       139.00000  138.00000  0.72%  53.9  355s
 79135   499  138.00000   50   65  139.00000  138.00000  0.72%  53.9  360s
 80353   483     cutoff   47       139.00000  138.00000  0.72%  53.9  365s
 81676   495  138.00000   39   87  139.00000  138.00000  0.72%  53.7  370s
 82884   504  138.00000   46   70  139.00000  138.00000  0.72%  53.8  375s
 83924   512     cutoff   47       139.00000  138.00000  0.72%  53.8  380s
 85088   534  138.00000   65   75  139.00000  138.00000  0.72%  53.9  385s
 86187   514     cutoff   53       139.00000  138.00000  0.72%  54.0  390s
 87410   495  138.00000   50  118  139.00000  138.00000  0.72%  53.9  395s
 88590   491  138.00000   48  117  139.00000  138.00000  0.72%  54.0  400s
 89725   503     cutoff   45       139.00000  138.00000  0.72%  54.0  405s
 90862   506  138.00000   47   68  139.00000  138.00000  0.72%  54.2  410s
 92123   510     cutoff   50       139.00000  138.00000  0.72%  54.1  415s
 93215   499  138.00000   48   85  139.00000  138.00000  0.72%  54.2  420s
 94332   498  138.00000   46  160  139.00000  138.00000  0.72%  54.2  425s
 95455   511  138.00000   47   88  139.00000  138.00000  0.72%  54.3  430s
 96553   489     cutoff   43       139.00000  138.00000  0.72%  54.4  435s
 97592   506  138.00000   44  120  139.00000  138.00000  0.72%  54.5  440s
 98719   479  138.00000   38  189  139.00000  138.00000  0.72%  54.5  445s
 99851   511  138.00000   53   67  139.00000  138.00000  0.72%  54.4  450s
 101201   511  138.00000   46   61  139.00000  138.00000  0.72%  54.3  455s
 102633   503  138.00000   63   85  139.00000  138.00000  0.72%  54.2  460s
 103763   512  138.00000   49   98  139.00000  138.00000  0.72%  54.2  465s
 104972   507  138.00000   29  227  139.00000  138.00000  0.72%  54.3  470s
 106142   539  138.00000   53  141  139.00000  138.00000  0.72%  54.3  475s
 107286   554     cutoff   66       139.00000  138.00000  0.72%  54.5  480s
 108457   533     cutoff   53       139.00000  138.00000  0.72%  54.6  485s
 109573   512  138.00000   61  173  139.00000  138.00000  0.72%  54.7  490s
 110638   519  138.00000   53  193  139.00000  138.00000  0.72%  54.9  495s
 111627   536  138.00000   68   86  139.00000  138.00000  0.72%  55.0  500s
 112929   569     cutoff   55       139.00000  138.00000  0.72%  55.0  505s
 114238   529  138.00000   51  118  139.00000  138.00000  0.72%  55.1  510s
 115408   527     cutoff   56       139.00000  138.00000  0.72%  55.2  515s
 116677   536     cutoff   71       139.00000  138.00000  0.72%  55.2  520s
 117933   521     cutoff   43       139.00000  138.00000  0.72%  55.3  525s
 119161   506     cutoff   61       139.00000  138.00000  0.72%  55.4  530s
 120268   503     cutoff   44       139.00000  138.00000  0.72%  55.4  535s
 121423   509  138.00000   46   74  139.00000  138.00000  0.72%  55.5  540s
 122409   496  138.00000   43   43  139.00000  138.00000  0.72%  55.5  545s
 123682   502  138.00000   51  136  139.00000  138.00000  0.72%  55.4  550s
 124727   527     cutoff   60       139.00000  138.00000  0.72%  55.5  555s
 125903   519     cutoff   60       139.00000  138.00000  0.72%  55.5  560s
 127163   503  138.00000   55   66  139.00000  138.00000  0.72%  55.4  565s
 128306   512     cutoff   47       139.00000  138.00000  0.72%  55.4  570s
 129272   536  138.00000   57   60  139.00000  138.00000  0.72%  55.3  575s
 130459   500  138.00000   50   77  139.00000  138.00000  0.72%  55.4  580s
 131602   514  138.00000   56   98  139.00000  138.00000  0.72%  55.4  585s
 132714   496     cutoff   46       139.00000  138.00000  0.72%  55.5  590s
 133910   475     cutoff   47       139.00000  138.00000  0.72%  55.4  595s
 135216   480  138.00000   52   88  139.00000  138.00000  0.72%  55.4  600s
 136407   492     cutoff   59       139.00000  138.00000  0.72%  55.4  605s
 137574   499     cutoff   51       139.00000  138.00000  0.72%  55.4  610s
 138397   496  138.00000   46  154  139.00000  138.00000  0.72%  55.5  615s
 139741   492     cutoff   59       139.00000  138.00000  0.72%  55.5  620s
 140952   495  138.00012   50  181  139.00000  138.00000  0.72%  55.5  625s
 142218   485  138.00000   39  179  139.00000  138.00000  0.72%  55.5  630s
 143431   535     cutoff   45       139.00000  138.00000  0.72%  55.5  635s
 144680   543  138.00000   48   96  139.00000  138.00000  0.72%  55.5  640s
 145931   515     cutoff   54       139.00000  138.00000  0.72%  55.5  645s
 147162   494  138.00000   67  105  139.00000  138.00000  0.72%  55.6  650s
 148382   467  138.00000   56  121  139.00000  138.00000  0.72%  55.6  655s
 149564   447     cutoff   66       139.00000  138.00000  0.72%  55.6  660s
 150884   463  138.00000   83  100  139.00000  138.00000  0.72%  55.6  665s
 151864   437     cutoff   67       139.00000  138.00000  0.72%  55.7  670s
 152944   435     cutoff   62       139.00000  138.00000  0.72%  55.8  675s
 154027   398     cutoff   75       139.00000  138.00000  0.72%  55.9  680s
 155090   374  138.00000   53   88  139.00000  138.00000  0.72%  56.0  685s
 156063   366     cutoff   52       139.00000  138.00000  0.72%  56.2  690s
 156812   349  138.00000   48  203  139.00000  138.00000  0.72%  56.3  695s
 157989   353  138.00000   58  220  139.00000  138.00000  0.72%  56.4  700s
 159094   358     cutoff   60       139.00000  138.00000  0.72%  56.5  705s
 160203   360     cutoff   60       139.00000  138.00000  0.72%  56.5  710s
 161343   324     cutoff   50       139.00000  138.00000  0.72%  56.6  715s
 162491   326     cutoff   49       139.00000  138.00000  0.72%  56.7  720s
 163730   323  138.00000   55  117  139.00000  138.00000  0.72%  56.7  725s
 165016   326  138.00000   64   99  139.00000  138.00000  0.72%  56.7  730s
 166297   275  138.00000   53  127  139.00000  138.00000  0.72%  56.7  735s
 167258   261  138.00000   53  201  139.00000  138.00000  0.72%  56.8  740s
 168256   230  138.00000   72  146  139.00000  138.00000  0.72%  56.9  746s
 169091   185     cutoff   68       139.00000  138.00000  0.72%  56.9  750s
 170221   157  138.00000   40  223  139.00000  138.00000  0.72%  57.0  755s
 171420    68     cutoff   62       139.00000  138.00000  0.72%  57.0  760s

Cutting planes:
  Learned: 8
  Gomory: 49
  Lift-and-project: 2
  Cover: 137
  Implied bound: 65
  Clique: 3
  MIR: 135
  Mixing: 9
  StrongCG: 11
  Flow cover: 457
  GUB cover: 75
  Inf proof: 5
  Zero half: 125
  RLT: 48
  Relax-and-lift: 34
  BQP: 11

Explored 172062 nodes (9820651 simplex iterations) in 762.65 seconds (558.68 work units)
Thread count was 1 (of 16 available processors)

Solution count 10: 139 139 140 ... 144

Optimal solution found (tolerance 1.00e-04)
Best objective 1.390000000000e+02, best bound 1.380000118455e+02, gap 0.7194%

User-callback calls 622340, time in user-callback 3.04 sec

 sepatime1.2451488411078183e14 885019 30
139.0Stat(MathOptInterface.OPTIMAL, 139.0, 138.00001184553562, 0.007194159384635796, 1.2451488411078183e14, 1.539057, 762.6457068920135, 172062, Main.CFLG.LEFPAV, "", #undef)
ERROR: LoadError: SystemError: opening file "/scratch/opt/lxu/CFLG/results/tree_A/treeA.500.50.LEFPAV.Large": No such file or directory
Stacktrace:
 [1] systemerror(p::String, errno::Int32; extrainfo::Nothing)
   @ Base ./error.jl:176
 [2] systemerror
   @ ./error.jl:175 [inlined]
 [3] open(fname::String; lock::Bool, read::Nothing, write::Nothing, create::Nothing, truncate::Bool, append::Nothing)
   @ Base ./iostream.jl:295
 [4] open
   @ ./iostream.jl:277 [inlined]
 [5] open(fname::String, mode::String; lock::Bool)
   @ Base ./iostream.jl:358
 [6] open
   @ ./iostream.jl:357 [inlined]
 [7] main(args::Vector{String})
   @ Main /scratch/opt/lxu/CFLG/src/main.jl:51
 [8] top-level scope
   @ /scratch/opt/lxu/CFLG/src/main.jl:57
in expression starting at /scratch/opt/lxu/CFLG/src/main.jl:57
srun: error: htc-cmp476: task 0: Exited with exit code 1
